p cnf 15 27
8 0
7 0
13 -2 15 0
-7 -13 0
8 0
10 -4 -10 7 0
1 -11 0
-15 -13 14 0
5 14 0
-15 3 -12 -11 0
9 -15 -2 6 0
9 12 0
9 -12 -9 0
12 4 14 0
-7 12 -2 -9 0
2 0
-7 0
7 0
12 15 0
2 0
9 2 -14 0
8 0
-13 0
4 0
1 3 0
-7 -5 6 0
2 -4 0
